1 1373 7
2 1207 7
3 1096 7
8 1077 7
41 1071 7
60 1042 7
92 1017 7
851 1000 7



1 1284 7
2 1146 7
4 1096 7
7 1074 7
16 1038 7
145 1031 7
252 1024 7
374 1014 7
936 997 7



1 1257 7
2 1200 7
3 1097 7
13 1084 7
15 1080 7
16 1054 7
31 1047 7
39 1041 7
58 1028 7
875 1022 7



1 1356 7
2 1113 7
3 1079 7
14 1078 7
31 1069 7
46 1063 7
59 1028 7
689 1020 7
930 1016 7



1 1360 7
2 1140 7
4 1046 7
42 1025 7
673 1021 7
693 1007 7



